<?xml version = "1.0" standalone="yes"?>
<!-- This file has been generated by DOcplex version 2.23.222  -->
<CPLEXSolution version="1.0">
 <header
   problemName="CVRP"
   objectiveValue="15917.7"
  />
 <variables>
  <variable name="x_0_1" index="0" value="1.00000"/>
  <variable name="x_0_2" index="1" value="1.00000"/>
  <variable name="x_0_5" index="4" value="1.00000"/>
  <variable name="x_0_6" index="5" value="1.00000"/>
  <variable name="x_0_8" index="7" value="1.00000"/>
  <variable name="x_0_9" index="8" value="1.00000"/>
  <variable name="x_0_11" index="10" value="1.00000"/>
  <variable name="x_0_13" index="12" value="1.00000"/>
  <variable name="x_0_16" index="15" value="1.00000"/>
  <variable name="x_0_17" index="16" value="1.00000"/>
  <variable name="x_0_18" index="17" value="1.00000"/>
  <variable name="x_0_20" index="19" value="1.00000"/>
  <variable name="x_0_26" index="25" value="1.00000"/>
  <variable name="x_0_27" index="26" value="1.00000"/>
  <variable name="x_1_0" index="27" value="1.00000"/>
  <variable name="x_2_0" index="54" value="1.00000"/>
  <variable name="x_3_0" index="81" value="1.00000"/>
  <variable name="x_4_0" index="108" value="1.00000"/>
  <variable name="x_5_0" index="135" value="1.00000"/>
  <variable name="x_6_0" index="162" value="1.00000"/>
  <variable name="x_7_24" index="212" value="1.00000"/>
  <variable name="x_8_19" index="234" value="1.00000"/>
  <variable name="x_9_22" index="264" value="1.00000"/>
  <variable name="x_10_23" index="292" value="1.00000"/>
  <variable name="x_11_3" index="300" value="1.00000"/>
  <variable name="x_12_21" index="344" value="1.00000"/>
  <variable name="x_13_14" index="364" value="1.00000"/>
  <variable name="x_14_7" index="385" value="1.00000"/>
  <variable name="x_15_0" index="405" value="1.00000"/>
  <variable name="x_16_10" index="442" value="1.00000"/>
  <variable name="x_17_25" index="483" value="1.00000"/>
  <variable name="x_18_0" index="486" value="1.00000"/>
  <variable name="x_19_0" index="513" value="1.00000"/>
  <variable name="x_20_4" index="544" value="1.00000"/>
  <variable name="x_21_0" index="567" value="1.00000"/>
  <variable name="x_22_15" index="609" value="1.00000"/>
  <variable name="x_23_0" index="621" value="1.00000"/>
  <variable name="x_24_0" index="648" value="1.00000"/>
  <variable name="x_25_0" index="675" value="1.00000"/>
  <variable name="x_26_0" index="702" value="1.00000"/>
  <variable name="x_27_12" index="741" value="1.00000"/>
  <variable name="u_1" index="756" value="49.00000"/>
  <variable name="u_2" index="757" value="49.00000"/>
  <variable name="u_3" index="758" value="49.00000"/>
  <variable name="u_4" index="759" value="49.00000"/>
  <variable name="u_5" index="760" value="21.00000"/>
  <variable name="u_6" index="761" value="48.00000"/>
  <variable name="u_7" index="762" value="31.00000"/>
  <variable name="u_8" index="763" value="22.00000"/>
  <variable name="u_9" index="764" value="33.00000"/>
  <variable name="u_10" index="765" value="29.00000"/>
  <variable name="u_11" index="766" value="42.00000"/>
  <variable name="u_12" index="767" value="33.00000"/>
  <variable name="u_13" index="768" value="13.00000"/>
  <variable name="u_14" index="769" value="24.00000"/>
  <variable name="u_15" index="770" value="49.00000"/>
  <variable name="u_16" index="771" value="5.00000"/>
  <variable name="u_17" index="772" value="9.00000"/>
  <variable name="u_18" index="773" value="45.00000"/>
  <variable name="u_19" index="774" value="49.00000"/>
  <variable name="u_20" index="775" value="34.00000"/>
  <variable name="u_21" index="776" value="49.00000"/>
  <variable name="u_22" index="777" value="44.00000"/>
  <variable name="u_23" index="778" value="46.00000"/>
  <variable name="u_24" index="779" value="43.00000"/>
  <variable name="u_25" index="780" value="45.00000"/>
  <variable name="u_26" index="781" value="31.00000"/>
  <variable name="u_27" index="782" value="23.00000"/>
 </variables>
</CPLEXSolution>
